\* SchedulingProblem *\
Minimize
OBJ: 1000000 x_1_100 + 4 x_1_101 + 2 x_1_102 + 4 x_1_103 + 2 x_1_104
 + 4 x_1_105 + 2000000 x_1_106 + 2 x_1_107 + 3 x_1_108 + 4 x_1_109
 + 2000000 x_1_110 + x_1_111 + 2000000 x_1_112 + x_1_113 + 2000000 x_1_114
 + 3 x_1_115 + 4 x_1_116 + 2000000 x_1_117 + 2 x_1_118 + 4 x_2_100
 + 2000000 x_2_101 + 2000000 x_2_102 + 3 x_2_103 + 2000000 x_2_104 + 2 x_2_105
 + 2 x_2_106 + x_2_107 + 4 x_2_108 + 2000000 x_2_109 + 2 x_2_110
 + 2000000 x_2_111 + 3 x_2_112 + 2 x_2_113 + 2 x_2_114 + x_2_115
 + 2000000 x_2_116 + 3 x_2_117 + 4 x_2_118 + 3 x_3_100 + 3 x_3_101
 + 2000000 x_3_102 + 2000000 x_3_103 + 2000000 x_3_104 + 3 x_3_105 + 3 x_3_106
 + 3 x_3_107 + x_3_108 + 2 x_3_109 + 3 x_3_110 + 3 x_3_111 + 1000000 x_3_112
 + 2000000 x_3_113 + 2000000 x_3_114 + 2000000 x_3_115 + x_3_116 + 4 x_3_117
 + 3 x_3_118 + 2 x_4_100 + 2 x_4_101 + 3 x_4_102 + 2000000 x_4_103 + 3 x_4_104
 + 2000000 x_4_105 + 4 x_4_106 + 1000000 x_4_107 + 2000000 x_4_108 + 3 x_4_109
 + 4 x_4_110 + 4 x_4_111 + 4 x_4_112 + 2000000 x_4_113 + 4 x_4_114 + 4 x_4_115
 + 3 x_4_116 + 1000000 x_4_117 + 2000000 x_4_118 + 2000000 x_5_100
 + 1000000 x_5_101 + 1000000 x_5_102 + 1000000 x_5_103 + 1000000 x_5_104
 + 1000000 x_5_105 + 1000000 x_5_106 + 2000000 x_5_107 + 1000000 x_5_108
 + 1000000 x_5_109 + 1000000 x_5_110 + 1000000 x_5_111 + 2000000 x_5_112
 + 1000000 x_5_113 + 1000000 x_5_114 + 1000000 x_5_115 + 1000000 x_5_116
 + x_5_117 + 1000000 x_5_118
Subject To
_C1: x_1_100 + x_1_101 + x_1_102 + x_1_103 + x_1_104 + x_1_105 + x_1_106
 + x_1_107 + x_1_108 + x_1_109 + x_1_110 + x_1_111 + x_1_112 + x_1_113
 + x_1_114 + x_1_115 + x_1_116 + x_1_117 + x_1_118 >= 2
_C10: x_2_100 + x_2_101 + x_2_102 + x_2_103 + x_2_104 + x_2_105 + x_2_106
 + x_2_107 + x_2_108 + x_2_109 + x_2_110 + x_2_111 + x_2_112 + x_2_113
 + x_2_114 + x_2_115 + x_2_116 + x_2_117 + x_2_118 <= 4
_C11: x_2_100 + x_2_101 + x_2_102 + x_2_103 + x_2_104 + x_2_105 + x_2_106
 + x_2_107 + x_2_108 + x_2_109 + x_2_110 >= 0
_C12: x_2_111 + x_2_112 + x_2_113 + x_2_114 + x_2_115 + x_2_116 + x_2_117
 + x_2_118 >= 0
_C13: - 2 x_2_100 - 4 x_2_101 - 5 x_2_102 + 5 x_2_103 - 7 x_2_104 + 6 x_2_105
 - 6 x_2_106 + 5 x_2_107 - 12 x_2_108 - 3 x_2_109 + x_2_110 - 7 x_2_111
 - 12 x_2_112 - 15 x_2_113 - 2 x_2_114 + 6 x_2_115 - 2 x_2_116 - 7 x_2_117
 + 7 x_2_118 <= 0
_C14: - 2 x_2_100 + 0 x_2_101 + x_2_102 - 9 x_2_103 + 3 x_2_104 - 10 x_2_105
 + 2 x_2_106 - 9 x_2_107 + 8 x_2_108 - x_2_109 - 5 x_2_110 + 3 x_2_111
 + 8 x_2_112 + 11 x_2_113 - 2 x_2_114 - 10 x_2_115 - 2 x_2_116 + 3 x_2_117
 - 11 x_2_118 <= 0
_C15: - 2 x_2_100 + 0 x_2_101 - 2 x_2_102 - 15 x_2_103 - 9 x_2_104 + 0 x_2_105
 - 4 x_2_106 + 8 x_2_107 - 15 x_2_108 - 3 x_2_109 + x_2_110 - 7 x_2_111
 - 7 x_2_112 - 6 x_2_113 - 2 x_2_114 + 9 x_2_115 - 3 x_2_116 + 2 x_2_117
 + 7 x_2_118 <= 0
_C16: - 2 x_2_100 - 4 x_2_101 - 2 x_2_102 + 11 x_2_103 + 5 x_2_104 - 4 x_2_105
 + 0 x_2_106 - 12 x_2_107 + 11 x_2_108 - x_2_109 - 5 x_2_110 + 3 x_2_111
 + 3 x_2_112 + 2 x_2_113 - 2 x_2_114 - 13 x_2_115 - x_2_116 - 6 x_2_117
 - 11 x_2_118 <= 0
_C17: x_3_100 + x_3_101 + x_3_102 + x_3_103 + x_3_104 + x_3_105 + x_3_106
 + x_3_107 + x_3_108 + x_3_109 + x_3_110 + x_3_111 + x_3_112 + x_3_113
 + x_3_114 + x_3_115 + x_3_116 + x_3_117 + x_3_118 >= 2
_C18: x_3_100 + x_3_101 + x_3_102 + x_3_103 + x_3_104 + x_3_105 + x_3_106
 + x_3_107 + x_3_108 + x_3_109 + x_3_110 + x_3_111 + x_3_112 + x_3_113
 + x_3_114 + x_3_115 + x_3_116 + x_3_117 + x_3_118 <= 4
_C19: x_3_100 + x_3_101 + x_3_102 + x_3_103 + x_3_104 + x_3_105 + x_3_106
 + x_3_107 + x_3_108 + x_3_109 + x_3_110 >= 0
_C2: x_1_100 + x_1_101 + x_1_102 + x_1_103 + x_1_104 + x_1_105 + x_1_106
 + x_1_107 + x_1_108 + x_1_109 + x_1_110 + x_1_111 + x_1_112 + x_1_113
 + x_1_114 + x_1_115 + x_1_116 + x_1_117 + x_1_118 <= 4
_C20: x_3_111 + x_3_112 + x_3_113 + x_3_114 + x_3_115 + x_3_116 + x_3_117
 + x_3_118 >= 0
_C21: - 2 x_3_100 - 4 x_3_101 - 5 x_3_102 + 5 x_3_103 - 7 x_3_104 + 6 x_3_105
 - 6 x_3_106 + 5 x_3_107 - 12 x_3_108 - 3 x_3_109 + x_3_110 - 7 x_3_111
 - 12 x_3_112 - 15 x_3_113 - 2 x_3_114 + 6 x_3_115 - 2 x_3_116 - 7 x_3_117
 + 7 x_3_118 <= 0
_C22: - 2 x_3_100 + 0 x_3_101 + x_3_102 - 9 x_3_103 + 3 x_3_104 - 10 x_3_105
 + 2 x_3_106 - 9 x_3_107 + 8 x_3_108 - x_3_109 - 5 x_3_110 + 3 x_3_111
 + 8 x_3_112 + 11 x_3_113 - 2 x_3_114 - 10 x_3_115 - 2 x_3_116 + 3 x_3_117
 - 11 x_3_118 <= 0
_C23: - 2 x_3_100 + 0 x_3_101 - 2 x_3_102 - 15 x_3_103 - 9 x_3_104 + 0 x_3_105
 - 4 x_3_106 + 8 x_3_107 - 15 x_3_108 - 3 x_3_109 + x_3_110 - 7 x_3_111
 - 7 x_3_112 - 6 x_3_113 - 2 x_3_114 + 9 x_3_115 - 3 x_3_116 + 2 x_3_117
 + 7 x_3_118 <= 0
_C24: - 2 x_3_100 - 4 x_3_101 - 2 x_3_102 + 11 x_3_103 + 5 x_3_104 - 4 x_3_105
 + 0 x_3_106 - 12 x_3_107 + 11 x_3_108 - x_3_109 - 5 x_3_110 + 3 x_3_111
 + 3 x_3_112 + 2 x_3_113 - 2 x_3_114 - 13 x_3_115 - x_3_116 - 6 x_3_117
 - 11 x_3_118 <= 0
_C25: x_4_100 + x_4_101 + x_4_102 + x_4_103 + x_4_104 + x_4_105 + x_4_106
 + x_4_107 + x_4_108 + x_4_109 + x_4_110 + x_4_111 + x_4_112 + x_4_113
 + x_4_114 + x_4_115 + x_4_116 + x_4_117 + x_4_118 >= 2
_C26: x_4_100 + x_4_101 + x_4_102 + x_4_103 + x_4_104 + x_4_105 + x_4_106
 + x_4_107 + x_4_108 + x_4_109 + x_4_110 + x_4_111 + x_4_112 + x_4_113
 + x_4_114 + x_4_115 + x_4_116 + x_4_117 + x_4_118 <= 4
_C27: x_4_100 + x_4_101 + x_4_102 + x_4_103 + x_4_104 + x_4_105 + x_4_106
 + x_4_107 + x_4_108 + x_4_109 + x_4_110 >= 0
_C28: x_4_111 + x_4_112 + x_4_113 + x_4_114 + x_4_115 + x_4_116 + x_4_117
 + x_4_118 >= 0
_C29: - 2 x_4_100 - 4 x_4_101 - 5 x_4_102 + 5 x_4_103 - 7 x_4_104 + 6 x_4_105
 - 6 x_4_106 + 5 x_4_107 - 12 x_4_108 - 3 x_4_109 + x_4_110 - 7 x_4_111
 - 12 x_4_112 - 15 x_4_113 - 2 x_4_114 + 6 x_4_115 - 2 x_4_116 - 7 x_4_117
 + 7 x_4_118 <= 0
_C3: x_1_100 + x_1_101 + x_1_102 + x_1_103 + x_1_104 + x_1_105 + x_1_106
 + x_1_107 + x_1_108 + x_1_109 + x_1_110 >= 0
_C30: - 2 x_4_100 + 0 x_4_101 + x_4_102 - 9 x_4_103 + 3 x_4_104 - 10 x_4_105
 + 2 x_4_106 - 9 x_4_107 + 8 x_4_108 - x_4_109 - 5 x_4_110 + 3 x_4_111
 + 8 x_4_112 + 11 x_4_113 - 2 x_4_114 - 10 x_4_115 - 2 x_4_116 + 3 x_4_117
 - 11 x_4_118 <= 0
_C31: - 2 x_4_100 + 0 x_4_101 - 2 x_4_102 - 15 x_4_103 - 9 x_4_104 + 0 x_4_105
 - 4 x_4_106 + 8 x_4_107 - 15 x_4_108 - 3 x_4_109 + x_4_110 - 7 x_4_111
 - 7 x_4_112 - 6 x_4_113 - 2 x_4_114 + 9 x_4_115 - 3 x_4_116 + 2 x_4_117
 + 7 x_4_118 <= 0
_C32: - 2 x_4_100 - 4 x_4_101 - 2 x_4_102 + 11 x_4_103 + 5 x_4_104 - 4 x_4_105
 + 0 x_4_106 - 12 x_4_107 + 11 x_4_108 - x_4_109 - 5 x_4_110 + 3 x_4_111
 + 3 x_4_112 + 2 x_4_113 - 2 x_4_114 - 13 x_4_115 - x_4_116 - 6 x_4_117
 - 11 x_4_118 <= 0
_C33: x_5_100 + x_5_101 + x_5_102 + x_5_103 + x_5_104 + x_5_105 + x_5_106
 + x_5_107 + x_5_108 + x_5_109 + x_5_110 + x_5_111 + x_5_112 + x_5_113
 + x_5_114 + x_5_115 + x_5_116 + x_5_117 + x_5_118 >= 2
_C34: x_5_100 + x_5_101 + x_5_102 + x_5_103 + x_5_104 + x_5_105 + x_5_106
 + x_5_107 + x_5_108 + x_5_109 + x_5_110 + x_5_111 + x_5_112 + x_5_113
 + x_5_114 + x_5_115 + x_5_116 + x_5_117 + x_5_118 <= 4
_C35: x_5_100 + x_5_101 + x_5_102 + x_5_103 + x_5_104 + x_5_105 + x_5_106
 + x_5_107 + x_5_108 + x_5_109 + x_5_110 >= 0
_C36: x_5_111 + x_5_112 + x_5_113 + x_5_114 + x_5_115 + x_5_116 + x_5_117
 + x_5_118 >= 0
_C37: - 2 x_5_100 - 4 x_5_101 - 5 x_5_102 + 5 x_5_103 - 7 x_5_104 + 6 x_5_105
 - 6 x_5_106 + 5 x_5_107 - 12 x_5_108 - 3 x_5_109 + x_5_110 - 7 x_5_111
 - 12 x_5_112 - 15 x_5_113 - 2 x_5_114 + 6 x_5_115 - 2 x_5_116 - 7 x_5_117
 + 7 x_5_118 <= 0
_C38: - 2 x_5_100 + 0 x_5_101 + x_5_102 - 9 x_5_103 + 3 x_5_104 - 10 x_5_105
 + 2 x_5_106 - 9 x_5_107 + 8 x_5_108 - x_5_109 - 5 x_5_110 + 3 x_5_111
 + 8 x_5_112 + 11 x_5_113 - 2 x_5_114 - 10 x_5_115 - 2 x_5_116 + 3 x_5_117
 - 11 x_5_118 <= 0
_C39: - 2 x_5_100 + 0 x_5_101 - 2 x_5_102 - 15 x_5_103 - 9 x_5_104 + 0 x_5_105
 - 4 x_5_106 + 8 x_5_107 - 15 x_5_108 - 3 x_5_109 + x_5_110 - 7 x_5_111
 - 7 x_5_112 - 6 x_5_113 - 2 x_5_114 + 9 x_5_115 - 3 x_5_116 + 2 x_5_117
 + 7 x_5_118 <= 0
_C4: x_1_111 + x_1_112 + x_1_113 + x_1_114 + x_1_115 + x_1_116 + x_1_117
 + x_1_118 >= 0
_C40: - 2 x_5_100 - 4 x_5_101 - 2 x_5_102 + 11 x_5_103 + 5 x_5_104 - 4 x_5_105
 + 0 x_5_106 - 12 x_5_107 + 11 x_5_108 - x_5_109 - 5 x_5_110 + 3 x_5_111
 + 3 x_5_112 + 2 x_5_113 - 2 x_5_114 - 13 x_5_115 - x_5_116 - 6 x_5_117
 - 11 x_5_118 <= 0
_C41: x_1_100 + x_2_100 + x_3_100 + x_4_100 + x_5_100 = 1
_C42: x_1_101 + x_2_101 + x_3_101 + x_4_101 + x_5_101 = 1
_C43: x_1_102 + x_2_102 + x_3_102 + x_4_102 + x_5_102 = 1
_C44: x_1_103 + x_2_103 + x_3_103 + x_4_103 + x_5_103 = 1
_C45: x_1_104 + x_2_104 + x_3_104 + x_4_104 + x_5_104 = 1
_C46: x_1_105 + x_2_105 + x_3_105 + x_4_105 + x_5_105 = 1
_C47: x_1_106 + x_2_106 + x_3_106 + x_4_106 + x_5_106 = 1
_C48: x_1_107 + x_2_107 + x_3_107 + x_4_107 + x_5_107 = 1
_C49: x_1_108 + x_2_108 + x_3_108 + x_4_108 + x_5_108 = 1
_C5: - 2 x_1_100 - 4 x_1_101 - 5 x_1_102 + 5 x_1_103 - 7 x_1_104 + 6 x_1_105
 - 6 x_1_106 + 5 x_1_107 - 12 x_1_108 - 3 x_1_109 + x_1_110 - 7 x_1_111
 - 12 x_1_112 - 15 x_1_113 - 2 x_1_114 + 6 x_1_115 - 2 x_1_116 - 7 x_1_117
 + 7 x_1_118 <= 0
_C50: x_1_109 + x_2_109 + x_3_109 + x_4_109 + x_5_109 = 1
_C51: x_1_110 + x_2_110 + x_3_110 + x_4_110 + x_5_110 = 1
_C52: x_1_111 + x_2_111 + x_3_111 + x_4_111 + x_5_111 = 1
_C53: x_1_112 + x_2_112 + x_3_112 + x_4_112 + x_5_112 = 1
_C54: x_1_113 + x_2_113 + x_3_113 + x_4_113 + x_5_113 = 1
_C55: x_1_114 + x_2_114 + x_3_114 + x_4_114 + x_5_114 = 1
_C56: x_1_115 + x_2_115 + x_3_115 + x_4_115 + x_5_115 = 1
_C57: x_1_116 + x_2_116 + x_3_116 + x_4_116 + x_5_116 = 1
_C58: x_1_117 + x_2_117 + x_3_117 + x_4_117 + x_5_117 = 1
_C59: x_1_118 + x_2_118 + x_3_118 + x_4_118 + x_5_118 = 1
_C6: - 2 x_1_100 + 0 x_1_101 + x_1_102 - 9 x_1_103 + 3 x_1_104 - 10 x_1_105
 + 2 x_1_106 - 9 x_1_107 + 8 x_1_108 - x_1_109 - 5 x_1_110 + 3 x_1_111
 + 8 x_1_112 + 11 x_1_113 - 2 x_1_114 - 10 x_1_115 - 2 x_1_116 + 3 x_1_117
 - 11 x_1_118 <= 0
_C7: - 2 x_1_100 + 0 x_1_101 - 2 x_1_102 - 15 x_1_103 - 9 x_1_104 + 0 x_1_105
 - 4 x_1_106 + 8 x_1_107 - 15 x_1_108 - 3 x_1_109 + x_1_110 - 7 x_1_111
 - 7 x_1_112 - 6 x_1_113 - 2 x_1_114 + 9 x_1_115 - 3 x_1_116 + 2 x_1_117
 + 7 x_1_118 <= 0
_C8: - 2 x_1_100 - 4 x_1_101 - 2 x_1_102 + 11 x_1_103 + 5 x_1_104 - 4 x_1_105
 + 0 x_1_106 - 12 x_1_107 + 11 x_1_108 - x_1_109 - 5 x_1_110 + 3 x_1_111
 + 3 x_1_112 + 2 x_1_113 - 2 x_1_114 - 13 x_1_115 - x_1_116 - 6 x_1_117
 - 11 x_1_118 <= 0
_C9: x_2_100 + x_2_101 + x_2_102 + x_2_103 + x_2_104 + x_2_105 + x_2_106
 + x_2_107 + x_2_108 + x_2_109 + x_2_110 + x_2_111 + x_2_112 + x_2_113
 + x_2_114 + x_2_115 + x_2_116 + x_2_117 + x_2_118 >= 2
Binaries
x_1_100
x_1_101
x_1_102
x_1_103
x_1_104
x_1_105
x_1_106
x_1_107
x_1_108
x_1_109
x_1_110
x_1_111
x_1_112
x_1_113
x_1_114
x_1_115
x_1_116
x_1_117
x_1_118
x_2_100
x_2_101
x_2_102
x_2_103
x_2_104
x_2_105
x_2_106
x_2_107
x_2_108
x_2_109
x_2_110
x_2_111
x_2_112
x_2_113
x_2_114
x_2_115
x_2_116
x_2_117
x_2_118
x_3_100
x_3_101
x_3_102
x_3_103
x_3_104
x_3_105
x_3_106
x_3_107
x_3_108
x_3_109
x_3_110
x_3_111
x_3_112
x_3_113
x_3_114
x_3_115
x_3_116
x_3_117
x_3_118
x_4_100
x_4_101
x_4_102
x_4_103
x_4_104
x_4_105
x_4_106
x_4_107
x_4_108
x_4_109
x_4_110
x_4_111
x_4_112
x_4_113
x_4_114
x_4_115
x_4_116
x_4_117
x_4_118
x_5_100
x_5_101
x_5_102
x_5_103
x_5_104
x_5_105
x_5_106
x_5_107
x_5_108
x_5_109
x_5_110
x_5_111
x_5_112
x_5_113
x_5_114
x_5_115
x_5_116
x_5_117
x_5_118
End
